set ITEMS := I1 I2 I3 I4 I5 I6;
set SUBSETS := S1 S2 S3 S4 S5 S6;

param Cost := 
    S1      1 
    S2      1 
    S3      1 
    S4      1 
    S5      1 
    S6      1
;

param A : S1 S2 S3 S4 S5 S6 :=
    I1    1  0  0  0  0  1
    I2    1  0  0  0  0  1
    I3    0  1  0  0  1  0
    I4    0  1  0  0  1  0
    I5    0  0  1  1  0  0
    I6    0  0  1  1  0  0 
;